c Random 15-regular graph n=500
c All nodes degree=15, no exploitable structure
c Hard for both: uniform landscape
p edge 500 3750
e 1 8
e 1 28
e 1 55
e 1 57
e 1 79
e 1 84
e 1 97
e 1 148
e 1 193
e 1 361
e 1 365
e 1 442
e 1 467
e 1 473
e 1 498
e 2 8
e 2 64
e 2 97
e 2 139
e 2 159
e 2 164
e 2 219
e 2 240
e 2 297
e 2 327
e 2 342
e 2 365
e 2 423
e 2 445
e 2 474
e 3 59
e 3 73
e 3 149
e 3 156
e 3 162
e 3 225
e 3 253
e 3 269
e 3 291
e 3 339
e 3 363
e 3 377
e 3 422
e 3 435
e 3 463
e 4 15
e 4 68
e 4 177
e 4 192
e 4 224
e 4 243
e 4 267
e 4 271
e 4 281
e 4 288
e 4 334
e 4 371
e 4 394
e 4 429
e 4 490
e 5 83
e 5 128
e 5 143
e 5 147
e 5 156
e 5 183
e 5 190
e 5 228
e 5 266
e 5 289
e 5 363
e 5 407
e 5 408
e 5 463
e 5 483
e 6 92
e 6 102
e 6 103
e 6 229
e 6 296
e 6 302
e 6 339
e 6 341
e 6 356
e 6 363
e 6 368
e 6 377
e 6 387
e 6 399
e 6 487
e 7 66
e 7 69
e 7 129
e 7 154
e 7 191
e 7 201
e 7 223
e 7 254
e 7 285
e 7 301
e 7 338
e 7 407
e 7 429
e 7 478
e 7 497
e 8 10
e 8 186
e 8 208
e 8 226
e 8 271
e 8 325
e 8 358
e 8 370
e 8 383
e 8 393
e 8 420
e 8 443
e 8 486
e 9 13
e 9 45
e 9 156
e 9 224
e 9 248
e 9 297
e 9 312
e 9 334
e 9 343
e 9 399
e 9 401
e 9 438
e 9 440
e 9 469
e 9 478
e 10 32
e 10 85
e 10 118
e 10 150
e 10 181
e 10 198
e 10 212
e 10 289
e 10 299
e 10 336
e 10 381
e 10 388
e 10 421
e 10 470
e 11 36
e 11 96
e 11 114
e 11 151
e 11 186
e 11 201
e 11 227
e 11 292
e 11 310
e 11 381
e 11 407
e 11 422
e 11 441
e 11 456
e 11 496
e 12 54
e 12 57
e 12 98
e 12 112
e 12 172
e 12 210
e 12 218
e 12 275
e 12 290
e 12 319
e 12 332
e 12 399
e 12 418
e 12 425
e 12 461
e 13 29
e 13 46
e 13 105
e 13 112
e 13 135
e 13 179
e 13 226
e 13 240
e 13 322
e 13 330
e 13 334
e 13 337
e 13 340
e 13 474
e 14 73
e 14 91
e 14 152
e 14 173
e 14 207
e 14 229
e 14 268
e 14 313
e 14 351
e 14 388
e 14 392
e 14 394
e 14 396
e 14 489
e 14 496
e 15 53
e 15 80
e 15 87
e 15 99
e 15 105
e 15 123
e 15 135
e 15 140
e 15 149
e 15 307
e 15 324
e 15 423
e 15 431
e 15 463
e 16 96
e 16 97
e 16 120
e 16 123
e 16 128
e 16 130
e 16 133
e 16 152
e 16 220
e 16 222
e 16 235
e 16 242
e 16 271
e 16 360
e 16 365
e 17 18
e 17 21
e 17 67
e 17 73
e 17 105
e 17 133
e 17 160
e 17 243
e 17 277
e 17 333
e 17 354
e 17 381
e 17 385
e 17 473
e 17 499
e 18 19
e 18 45
e 18 90
e 18 137
e 18 181
e 18 199
e 18 234
e 18 245
e 18 306
e 18 316
e 18 377
e 18 389
e 18 467
e 18 487
e 19 48
e 19 98
e 19 114
e 19 124
e 19 126
e 19 156
e 19 176
e 19 184
e 19 290
e 19 294
e 19 334
e 19 370
e 19 461
e 19 483
e 20 51
e 20 67
e 20 120
e 20 125
e 20 176
e 20 181
e 20 289
e 20 297
e 20 322
e 20 330
e 20 331
e 20 374
e 20 424
e 20 462
e 20 500
e 21 103
e 21 136
e 21 172
e 21 214
e 21 242
e 21 322
e 21 332
e 21 333
e 21 362
e 21 386
e 21 400
e 21 467
e 21 471
e 21 500
e 22 46
e 22 100
e 22 171
e 22 227
e 22 228
e 22 283
e 22 327
e 22 341
e 22 347
e 22 390
e 22 408
e 22 409
e 22 424
e 22 437
e 22 488
e 23 62
e 23 72
e 23 77
e 23 99
e 23 101
e 23 146
e 23 148
e 23 153
e 23 210
e 23 223
e 23 286
e 23 388
e 23 390
e 23 410
e 23 494
e 24 81
e 24 111
e 24 140
e 24 188
e 24 207
e 24 227
e 24 262
e 24 265
e 24 297
e 24 301
e 24 319
e 24 361
e 24 383
e 24 388
e 24 497
e 25 85
e 25 89
e 25 113
e 25 130
e 25 151
e 25 157
e 25 174
e 25 197
e 25 270
e 25 288
e 25 295
e 25 338
e 25 372
e 25 389
e 25 460
e 26 30
e 26 31
e 26 43
e 26 89
e 26 164
e 26 214
e 26 221
e 26 224
e 26 244
e 26 288
e 26 309
e 26 419
e 26 469
e 26 488
e 26 492
e 27 36
e 27 42
e 27 89
e 27 94
e 27 105
e 27 108
e 27 110
e 27 217
e 27 243
e 27 272
e 27 279
e 27 373
e 27 382
e 27 399
e 27 466
e 28 86
e 28 101
e 28 144
e 28 203
e 28 245
e 28 274
e 28 290
e 28 315
e 28 335
e 28 342
e 28 365
e 28 377
e 28 421
e 28 440
e 29 58
e 29 66
e 29 71
e 29 77
e 29 97
e 29 107
e 29 187
e 29 223
e 29 388
e 29 402
e 29 418
e 29 456
e 29 462
e 29 476
e 30 42
e 30 91
e 30 96
e 30 162
e 30 174
e 30 182
e 30 233
e 30 245
e 30 265
e 30 275
e 30 293
e 30 304
e 30 332
e 30 375
e 31 65
e 31 75
e 31 98
e 31 104
e 31 111
e 31 183
e 31 221
e 31 257
e 31 274
e 31 323
e 31 341
e 31 361
e 31 378
e 31 458
e 32 40
e 32 53
e 32 61
e 32 118
e 32 151
e 32 180
e 32 229
e 32 239
e 32 258
e 32 340
e 32 347
e 32 403
e 32 473
e 32 496
e 33 52
e 33 69
e 33 90
e 33 108
e 33 150
e 33 162
e 33 215
e 33 300
e 33 343
e 33 381
e 33 411
e 33 424
e 33 429
e 33 432
e 33 438
e 34 39
e 34 74
e 34 142
e 34 155
e 34 189
e 34 198
e 34 293
e 34 337
e 34 340
e 34 358
e 34 371
e 34 380
e 34 394
e 34 412
e 34 479
e 35 47
e 35 50
e 35 62
e 35 77
e 35 110
e 35 123
e 35 133
e 35 154
e 35 169
e 35 194
e 35 263
e 35 306
e 35 355
e 35 413
e 35 455
e 36 90
e 36 166
e 36 173
e 36 176
e 36 181
e 36 214
e 36 265
e 36 283
e 36 380
e 36 420
e 36 465
e 36 476
e 36 494
e 37 118
e 37 165
e 37 179
e 37 223
e 37 248
e 37 260
e 37 293
e 37 300
e 37 311
e 37 313
e 37 342
e 37 391
e 37 396
e 37 464
e 37 491
e 38 42
e 38 74
e 38 95
e 38 115
e 38 196
e 38 216
e 38 222
e 38 237
e 38 252
e 38 254
e 38 314
e 38 386
e 38 419
e 38 432
e 38 494
e 39 47
e 39 48
e 39 106
e 39 147
e 39 166
e 39 189
e 39 232
e 39 308
e 39 313
e 39 315
e 39 322
e 39 421
e 39 430
e 39 436
e 40 56
e 40 64
e 40 65
e 40 101
e 40 134
e 40 138
e 40 171
e 40 240
e 40 249
e 40 276
e 40 277
e 40 288
e 40 300
e 40 455
e 41 44
e 41 57
e 41 109
e 41 114
e 41 205
e 41 218
e 41 248
e 41 275
e 41 287
e 41 298
e 41 311
e 41 382
e 41 416
e 41 437
e 41 484
e 42 43
e 42 111
e 42 144
e 42 243
e 42 277
e 42 343
e 42 358
e 42 426
e 42 444
e 42 478
e 42 482
e 42 495
e 43 58
e 43 80
e 43 207
e 43 221
e 43 229
e 43 230
e 43 245
e 43 306
e 43 363
e 43 370
e 43 405
e 43 426
e 43 455
e 44 48
e 44 68
e 44 92
e 44 107
e 44 160
e 44 183
e 44 188
e 44 194
e 44 231
e 44 325
e 44 344
e 44 369
e 44 425
e 44 443
e 45 58
e 45 88
e 45 104
e 45 182
e 45 234
e 45 343
e 45 369
e 45 425
e 45 429
e 45 432
e 45 462
e 45 465
e 45 490
e 46 87
e 46 107
e 46 119
e 46 275
e 46 310
e 46 329
e 46 394
e 46 409
e 46 412
e 46 429
e 46 431
e 46 476
e 46 488
e 47 77
e 47 100
e 47 102
e 47 113
e 47 155
e 47 256
e 47 290
e 47 296
e 47 313
e 47 324
e 47 345
e 47 350
e 47 355
e 48 100
e 48 109
e 48 117
e 48 130
e 48 145
e 48 228
e 48 253
e 48 277
e 48 284
e 48 318
e 48 410
e 48 463
e 49 100
e 49 129
e 49 156
e 49 180
e 49 211
e 49 251
e 49 262
e 49 306
e 49 315
e 49 327
e 49 405
e 49 408
e 49 420
e 49 440
e 49 447
e 50 86
e 50 125
e 50 141
e 50 161
e 50 205
e 50 219
e 50 274
e 50 352
e 50 384
e 50 386
e 50 411
e 50 442
e 50 449
e 50 495
e 51 89
e 51 113
e 51 144
e 51 191
e 51 235
e 51 264
e 51 273
e 51 300
e 51 339
e 51 344
e 51 366
e 51 434
e 51 478
e 51 494
e 52 66
e 52 68
e 52 158
e 52 177
e 52 189
e 52 247
e 52 258
e 52 297
e 52 357
e 52 405
e 52 435
e 52 443
e 52 468
e 52 490
e 53 54
e 53 86
e 53 109
e 53 200
e 53 258
e 53 292
e 53 316
e 53 325
e 53 332
e 53 379
e 53 418
e 53 434
e 53 479
e 54 86
e 54 141
e 54 159
e 54 182
e 54 217
e 54 264
e 54 341
e 54 353
e 54 368
e 54 397
e 54 426
e 54 428
e 54 484
e 55 59
e 55 61
e 55 155
e 55 164
e 55 262
e 55 305
e 55 395
e 55 399
e 55 414
e 55 415
e 55 447
e 55 455
e 55 460
e 55 465
e 56 131
e 56 158
e 56 178
e 56 219
e 56 228
e 56 241
e 56 321
e 56 348
e 56 365
e 56 419
e 56 425
e 56 431
e 56 433
e 56 487
e 57 68
e 57 120
e 57 145
e 57 168
e 57 198
e 57 238
e 57 260
e 57 277
e 57 308
e 57 312
e 57 360
e 57 375
e 58 66
e 58 87
e 58 117
e 58 171
e 58 227
e 58 239
e 58 245
e 58 247
e 58 271
e 58 345
e 58 486
e 58 493
e 59 70
e 59 82
e 59 108
e 59 115
e 59 170
e 59 183
e 59 220
e 59 295
e 59 352
e 59 359
e 59 386
e 59 400
e 59 415
e 60 72
e 60 103
e 60 109
e 60 170
e 60 254
e 60 255
e 60 273
e 60 310
e 60 335
e 60 357
e 60 381
e 60 388
e 60 403
e 60 406
e 60 472
e 61 119
e 61 149
e 61 160
e 61 183
e 61 216
e 61 375
e 61 388
e 61 395
e 61 416
e 61 424
e 61 484
e 61 491
e 61 497
e 62 93
e 62 108
e 62 109
e 62 142
e 62 177
e 62 184
e 62 267
e 62 273
e 62 296
e 62 352
e 62 396
e 62 411
e 62 459
e 63 124
e 63 138
e 63 154
e 63 214
e 63 298
e 63 326
e 63 336
e 63 342
e 63 362
e 63 380
e 63 382
e 63 390
e 63 449
e 63 453
e 63 495
e 64 67
e 64 75
e 64 148
e 64 177
e 64 213
e 64 229
e 64 247
e 64 270
e 64 391
e 64 461
e 64 470
e 64 477
e 64 480
e 65 138
e 65 152
e 65 205
e 65 219
e 65 379
e 65 401
e 65 402
e 65 446
e 65 448
e 65 469
e 65 472
e 65 498
e 65 500
e 66 84
e 66 88
e 66 138
e 66 201
e 66 256
e 66 257
e 66 307
e 66 368
e 66 374
e 66 424
e 66 496
e 67 89
e 67 150
e 67 185
e 67 203
e 67 275
e 67 291
e 67 379
e 67 391
e 67 412
e 67 429
e 67 454
e 67 485
e 68 77
e 68 86
e 68 102
e 68 169
e 68 182
e 68 266
e 68 279
e 68 355
e 68 390
e 68 407
e 68 443
e 69 77
e 69 140
e 69 289
e 69 309
e 69 336
e 69 340
e 69 348
e 69 406
e 69 415
e 69 416
e 69 421
e 69 438
e 69 491
e 70 83
e 70 128
e 70 171
e 70 207
e 70 263
e 70 264
e 70 321
e 70 364
e 70 374
e 70 376
e 70 438
e 70 460
e 70 467
e 70 468
e 71 106
e 71 163
e 71 197
e 71 200
e 71 236
e 71 239
e 71 240
e 71 252
e 71 275
e 71 278
e 71 322
e 71 339
e 71 396
e 71 434
e 72 93
e 72 105
e 72 119
e 72 152
e 72 164
e 72 202
e 72 212
e 72 318
e 72 357
e 72 373
e 72 445
e 72 471
e 72 493
e 73 95
e 73 186
e 73 222
e 73 229
e 73 235
e 73 278
e 73 280
e 73 298
e 73 356
e 73 374
e 73 394
e 73 455
e 74 116
e 74 150
e 74 172
e 74 173
e 74 201
e 74 281
e 74 311
e 74 316
e 74 347
e 74 354
e 74 360
e 74 372
e 74 456
e 75 78
e 75 154
e 75 205
e 75 294
e 75 304
e 75 330
e 75 387
e 75 396
e 75 404
e 75 419
e 75 459
e 75 467
e 75 480
e 76 83
e 76 184
e 76 206
e 76 261
e 76 272
e 76 277
e 76 285
e 76 287
e 76 325
e 76 327
e 76 379
e 76 381
e 76 402
e 76 442
e 76 478
e 77 97
e 77 239
e 77 247
e 77 255
e 77 326
e 77 327
e 77 417
e 77 473
e 77 499
e 78 99
e 78 104
e 78 121
e 78 134
e 78 199
e 78 210
e 78 262
e 78 274
e 78 300
e 78 368
e 78 382
e 78 404
e 78 409
e 78 429
e 79 183
e 79 194
e 79 205
e 79 216
e 79 249
e 79 257
e 79 315
e 79 319
e 79 337
e 79 378
e 79 394
e 79 443
e 79 464
e 79 470
e 80 95
e 80 184
e 80 211
e 80 219
e 80 233
e 80 284
e 80 406
e 80 410
e 80 418
e 80 423
e 80 468
e 80 477
e 80 487
e 81 153
e 81 212
e 81 264
e 81 304
e 81 316
e 81 370
e 81 375
e 81 395
e 81 402
e 81 408
e 81 409
e 81 462
e 81 468
e 81 471
e 82 93
e 82 109
e 82 141
e 82 152
e 82 157
e 82 184
e 82 263
e 82 276
e 82 292
e 82 306
e 82 312
e 82 377
e 82 392
e 82 435
e 83 110
e 83 145
e 83 227
e 83 238
e 83 240
e 83 247
e 83 248
e 83 265
e 83 326
e 83 371
e 83 401
e 83 460
e 84 107
e 84 169
e 84 197
e 84 233
e 84 252
e 84 276
e 84 278
e 84 284
e 84 299
e 84 347
e 84 426
e 84 457
e 84 477
e 85 95
e 85 140
e 85 155
e 85 226
e 85 249
e 85 315
e 85 332
e 85 339
e 85 353
e 85 434
e 85 477
e 85 488
e 85 491
e 86 141
e 86 146
e 86 240
e 86 281
e 86 344
e 86 357
e 86 360
e 86 373
e 86 390
e 86 426
e 87 133
e 87 189
e 87 197
e 87 273
e 87 330
e 87 359
e 87 370
e 87 375
e 87 393
e 87 397
e 87 409
e 87 467
e 88 89
e 88 93
e 88 134
e 88 179
e 88 183
e 88 197
e 88 201
e 88 229
e 88 232
e 88 269
e 88 377
e 88 441
e 88 494
e 89 106
e 89 113
e 89 166
e 89 168
e 89 239
e 89 240
e 89 363
e 89 418
e 89 446
e 90 97
e 90 179
e 90 184
e 90 195
e 90 237
e 90 242
e 90 249
e 90 293
e 90 308
e 90 324
e 90 343
e 90 402
e 91 98
e 91 206
e 91 231
e 91 237
e 91 246
e 91 253
e 91 293
e 91 321
e 91 324
e 91 348
e 91 404
e 91 452
e 91 490
e 92 99
e 92 150
e 92 163
e 92 265
e 92 283
e 92 285
e 92 294
e 92 337
e 92 358
e 92 416
e 92 424
e 92 469
e 92 499
e 93 144
e 93 236
e 93 240
e 93 283
e 93 304
e 93 318
e 93 334
e 93 339
e 93 373
e 93 385
e 93 408
e 94 102
e 94 115
e 94 140
e 94 143
e 94 172
e 94 229
e 94 321
e 94 331
e 94 336
e 94 356
e 94 372
e 94 377
e 94 412
e 94 485
e 95 103
e 95 160
e 95 188
e 95 204
e 95 296
e 95 317
e 95 333
e 95 359
e 95 392
e 95 411
e 95 433
e 96 147
e 96 156
e 96 232
e 96 255
e 96 280
e 96 296
e 96 299
e 96 346
e 96 360
e 96 404
e 96 475
e 96 476
e 97 117
e 97 214
e 97 273
e 97 296
e 97 302
e 97 303
e 97 354
e 97 442
e 97 463
e 98 138
e 98 218
e 98 266
e 98 302
e 98 325
e 98 351
e 98 356
e 98 392
e 98 415
e 98 435
e 98 466
e 99 103
e 99 172
e 99 182
e 99 191
e 99 202
e 99 203
e 99 323
e 99 349
e 99 408
e 99 416
e 99 495
e 100 188
e 100 231
e 100 236
e 100 284
e 100 294
e 100 309
e 100 329
e 100 424
e 100 436
e 100 459
e 100 475
e 101 102
e 101 107
e 101 124
e 101 203
e 101 204
e 101 242
e 101 320
e 101 349
e 101 378
e 101 403
e 101 456
e 101 464
e 102 106
e 102 150
e 102 178
e 102 184
e 102 237
e 102 251
e 102 269
e 102 308
e 102 405
e 102 481
e 103 120
e 103 126
e 103 134
e 103 169
e 103 178
e 103 245
e 103 334
e 103 359
e 103 452
e 103 481
e 104 135
e 104 158
e 104 315
e 104 323
e 104 394
e 104 420
e 104 428
e 104 431
e 104 468
e 104 476
e 104 493
e 104 496
e 105 148
e 105 201
e 105 215
e 105 222
e 105 246
e 105 311
e 105 349
e 105 357
e 105 370
e 105 464
e 106 166
e 106 175
e 106 188
e 106 191
e 106 295
e 106 373
e 106 412
e 106 419
e 106 421
e 106 425
e 106 448
e 107 120
e 107 128
e 107 171
e 107 203
e 107 217
e 107 237
e 107 260
e 107 317
e 107 426
e 107 500
e 108 132
e 108 203
e 108 226
e 108 260
e 108 327
e 108 336
e 108 358
e 108 397
e 108 417
e 108 425
e 108 440
e 109 167
e 109 275
e 109 287
e 109 300
e 109 359
e 109 369
e 109 385
e 109 398
e 109 422
e 110 153
e 110 159
e 110 206
e 110 213
e 110 297
e 110 312
e 110 314
e 110 317
e 110 329
e 110 355
e 110 357
e 110 444
e 111 136
e 111 206
e 111 209
e 111 296
e 111 301
e 111 307
e 111 321
e 111 349
e 111 373
e 111 430
e 111 450
e 111 486
e 112 130
e 112 155
e 112 163
e 112 167
e 112 250
e 112 273
e 112 274
e 112 335
e 112 353
e 112 385
e 112 411
e 112 486
e 112 493
e 113 127
e 113 214
e 113 265
e 113 280
e 113 293
e 113 295
e 113 298
e 113 335
e 113 341
e 113 347
e 113 387
e 114 164
e 114 166
e 114 177
e 114 189
e 114 229
e 114 254
e 114 302
e 114 328
e 114 360
e 114 433
e 114 457
e 114 498
e 115 116
e 115 233
e 115 253
e 115 283
e 115 320
e 115 335
e 115 370
e 115 417
e 115 459
e 115 471
e 115 481
e 115 484
e 116 147
e 116 216
e 116 237
e 116 260
e 116 291
e 116 306
e 116 335
e 116 340
e 116 344
e 116 353
e 116 420
e 116 477
e 116 482
e 117 144
e 117 165
e 117 201
e 117 205
e 117 217
e 117 234
e 117 236
e 117 269
e 117 383
e 117 407
e 117 458
e 117 473
e 118 131
e 118 172
e 118 266
e 118 280
e 118 333
e 118 348
e 118 373
e 118 444
e 118 451
e 118 468
e 118 482
e 118 484
e 119 141
e 119 156
e 119 208
e 119 220
e 119 301
e 119 303
e 119 309
e 119 315
e 119 331
e 119 360
e 119 402
e 119 427
e 120 143
e 120 153
e 120 200
e 120 220
e 120 224
e 120 252
e 120 256
e 120 365
e 120 429
e 120 486
e 121 133
e 121 146
e 121 175
e 121 268
e 121 332
e 121 349
e 121 373
e 121 394
e 121 417
e 121 438
e 121 458
e 121 486
e 121 493
e 121 498
e 122 124
e 122 131
e 122 163
e 122 174
e 122 186
e 122 212
e 122 214
e 122 225
e 122 243
e 122 270
e 122 346
e 122 362
e 122 420
e 122 435
e 122 479
e 123 125
e 123 225
e 123 258
e 123 297
e 123 315
e 123 352
e 123 396
e 123 443
e 123 445
e 123 480
e 123 483
e 123 492
e 124 159
e 124 163
e 124 180
e 124 207
e 124 212
e 124 261
e 124 349
e 124 383
e 124 384
e 124 440
e 124 457
e 125 179
e 125 190
e 125 192
e 125 203
e 125 221
e 125 231
e 125 256
e 125 268
e 125 334
e 125 444
e 125 486
e 125 493
e 126 141
e 126 176
e 126 182
e 126 185
e 126 206
e 126 217
e 126 253
e 126 320
e 126 327
e 126 337
e 126 419
e 126 448
e 126 474
e 127 139
e 127 153
e 127 203
e 127 270
e 127 274
e 127 278
e 127 286
e 127 321
e 127 352
e 127 356
e 127 406
e 127 411
e 127 436
e 127 489
e 128 137
e 128 149
e 128 197
e 128 203
e 128 227
e 128 262
e 128 263
e 128 268
e 128 271
e 128 346
e 128 427
e 129 136
e 129 192
e 129 246
e 129 345
e 129 348
e 129 352
e 129 354
e 129 366
e 129 415
e 129 436
e 129 462
e 129 465
e 129 472
e 130 146
e 130 153
e 130 196
e 130 230
e 130 236
e 130 319
e 130 332
e 130 385
e 130 424
e 130 450
e 130 460
e 131 165
e 131 176
e 131 196
e 131 207
e 131 248
e 131 282
e 131 317
e 131 384
e 131 387
e 131 441
e 131 482
e 131 490
e 132 138
e 132 159
e 132 168
e 132 178
e 132 187
e 132 208
e 132 250
e 132 274
e 132 353
e 132 369
e 132 372
e 132 377
e 132 458
e 132 469
e 133 139
e 133 145
e 133 170
e 133 192
e 133 196
e 133 280
e 133 293
e 133 470
e 133 480
e 133 491
e 134 135
e 134 167
e 134 170
e 134 175
e 134 207
e 134 288
e 134 344
e 134 375
e 134 386
e 134 457
e 134 458
e 135 175
e 135 182
e 135 184
e 135 193
e 135 323
e 135 338
e 135 341
e 135 392
e 135 433
e 135 442
e 135 470
e 136 237
e 136 285
e 136 348
e 136 380
e 136 407
e 136 413
e 136 441
e 136 445
e 136 454
e 136 465
e 136 496
e 136 497
e 137 159
e 137 174
e 137 190
e 137 234
e 137 276
e 137 287
e 137 310
e 137 366
e 137 371
e 137 380
e 137 412
e 137 482
e 137 485
e 138 147
e 138 156
e 138 165
e 138 169
e 138 206
e 138 326
e 138 336
e 138 384
e 138 395
e 139 162
e 139 186
e 139 237
e 139 244
e 139 284
e 139 300
e 139 356
e 139 373
e 139 393
e 139 394
e 139 484
e 139 490
e 140 174
e 140 224
e 140 256
e 140 260
e 140 346
e 140 349
e 140 364
e 140 432
e 140 463
e 140 468
e 141 163
e 141 199
e 141 207
e 141 253
e 141 260
e 141 271
e 141 431
e 141 444
e 141 495
e 142 149
e 142 172
e 142 194
e 142 262
e 142 340
e 142 360
e 142 367
e 142 401
e 142 439
e 142 447
e 142 451
e 142 494
e 142 496
e 143 185
e 143 236
e 143 257
e 143 265
e 143 278
e 143 302
e 143 311
e 143 355
e 143 387
e 143 435
e 143 485
e 143 486
e 144 165
e 144 220
e 144 234
e 144 291
e 144 329
e 144 348
e 144 398
e 144 449
e 144 474
e 144 490
e 145 187
e 145 210
e 145 218
e 145 233
e 145 265
e 145 293
e 145 301
e 145 309
e 145 353
e 145 378
e 145 463
e 146 189
e 146 205
e 146 220
e 146 231
e 146 273
e 146 287
e 146 302
e 146 317
e 146 323
e 146 443
e 146 456
e 147 151
e 147 180
e 147 203
e 147 296
e 147 323
e 147 350
e 147 396
e 147 415
e 147 426
e 147 435
e 148 152
e 148 168
e 148 193
e 148 276
e 148 317
e 148 338
e 148 367
e 148 423
e 148 455
e 148 467
e 148 498
e 149 210
e 149 281
e 149 333
e 149 339
e 149 349
e 149 398
e 149 450
e 149 453
e 149 481
e 149 484
e 150 154
e 150 156
e 150 182
e 150 275
e 150 303
e 150 423
e 150 452
e 150 456
e 150 492
e 151 189
e 151 241
e 151 251
e 151 316
e 151 328
e 151 355
e 151 427
e 151 429
e 151 450
e 151 482
e 151 488
e 152 180
e 152 198
e 152 285
e 152 336
e 152 351
e 152 399
e 152 404
e 152 431
e 152 469
e 153 177
e 153 237
e 153 241
e 153 294
e 153 323
e 153 337
e 153 380
e 153 433
e 153 449
e 154 160
e 154 193
e 154 205
e 154 244
e 154 266
e 154 366
e 154 367
e 154 433
e 154 448
e 154 471
e 155 156
e 155 277
e 155 294
e 155 332
e 155 350
e 155 395
e 155 409
e 155 448
e 155 477
e 155 481
e 156 187
e 156 224
e 156 258
e 156 494
e 156 495
e 157 191
e 157 201
e 157 227
e 157 243
e 157 365
e 157 367
e 157 377
e 157 405
e 157 414
e 157 453
e 157 475
e 157 492
e 157 500
e 158 192
e 158 203
e 158 219
e 158 322
e 158 351
e 158 367
e 158 396
e 158 460
e 158 472
e 158 474
e 158 476
e 158 486
e 159 201
e 159 366
e 159 382
e 159 400
e 159 413
e 159 438
e 159 464
e 159 483
e 159 490
e 160 216
e 160 285
e 160 290
e 160 300
e 160 321
e 160 333
e 160 417
e 160 430
e 160 484
e 160 499
e 161 219
e 161 222
e 161 268
e 161 272
e 161 280
e 161 286
e 161 341
e 161 351
e 161 354
e 161 408
e 161 425
e 161 447
e 161 466
e 161 499
e 162 197
e 162 212
e 162 234
e 162 237
e 162 246
e 162 273
e 162 343
e 162 381
e 162 419
e 162 431
e 162 450
e 163 201
e 163 235
e 163 331
e 163 414
e 163 449
e 163 452
e 163 466
e 163 490
e 163 498
e 164 177
e 164 185
e 164 248
e 164 272
e 164 289
e 164 298
e 164 432
e 164 437
e 164 445
e 164 493
e 165 257
e 165 260
e 165 292
e 165 319
e 165 339
e 165 340
e 165 344
e 165 444
e 165 465
e 165 487
e 166 177
e 166 218
e 166 228
e 166 267
e 166 313
e 166 335
e 166 344
e 166 411
e 166 469
e 166 472
e 167 195
e 167 208
e 167 226
e 167 238
e 167 328
e 167 344
e 167 417
e 167 424
e 167 439
e 167 446
e 167 464
e 167 483
e 168 184
e 168 236
e 168 278
e 168 295
e 168 322
e 168 367
e 168 424
e 168 439
e 168 452
e 168 462
e 168 494
e 169 192
e 169 194
e 169 225
e 169 230
e 169 243
e 169 282
e 169 391
e 169 429
e 169 460
e 169 485
e 170 232
e 170 264
e 170 265
e 170 299
e 170 308
e 170 321
e 170 361
e 170 466
e 170 486
e 170 493
e 170 494
e 171 242
e 171 259
e 171 261
e 171 289
e 171 319
e 171 353
e 171 356
e 171 362
e 171 405
e 171 476
e 172 246
e 172 249
e 172 305
e 172 353
e 172 390
e 172 420
e 172 455
e 172 492
e 173 195
e 173 196
e 173 200
e 173 209
e 173 241
e 173 278
e 173 297
e 173 320
e 173 392
e 173 402
e 173 424
e 173 481
e 174 239
e 174 256
e 174 261
e 174 263
e 174 265
e 174 349
e 174 372
e 174 428
e 174 433
e 174 447
e 175 187
e 175 257
e 175 261
e 175 291
e 175 313
e 175 333
e 175 392
e 175 416
e 175 470
e 175 471
e 175 498
e 176 181
e 176 230
e 176 243
e 176 344
e 176 361
e 176 381
e 176 394
e 176 423
e 176 488
e 176 494
e 177 222
e 177 268
e 177 330
e 177 387
e 177 393
e 177 418
e 177 478
e 178 201
e 178 221
e 178 232
e 178 253
e 178 265
e 178 284
e 178 314
e 178 371
e 178 431
e 178 477
e 178 482
e 179 213
e 179 244
e 179 280
e 179 299
e 179 330
e 179 416
e 179 432
e 179 455
e 179 467
e 179 476
e 180 202
e 180 254
e 180 291
e 180 306
e 180 316
e 180 331
e 180 348
e 180 389
e 180 393
e 180 414
e 181 191
e 181 206
e 181 220
e 181 249
e 181 258
e 181 337
e 181 359
e 181 374
e 181 408
e 181 427
e 182 216
e 182 219
e 182 310
e 182 329
e 182 425
e 182 433
e 182 496
e 183 212
e 183 233
e 183 263
e 183 294
e 183 403
e 183 460
e 183 461
e 183 475
e 184 185
e 184 222
e 184 319
e 184 366
e 184 387
e 184 439
e 185 243
e 185 252
e 185 254
e 185 256
e 185 304
e 185 374
e 185 457
e 185 468
e 185 472
e 185 481
e 186 220
e 186 254
e 186 257
e 186 270
e 186 281
e 186 297
e 186 394
e 186 443
e 186 446
e 186 454
e 187 227
e 187 228
e 187 243
e 187 278
e 187 376
e 187 389
e 187 391
e 187 420
e 187 446
e 187 477
e 188 215
e 188 231
e 188 250
e 188 251
e 188 266
e 188 283
e 188 393
e 188 469
e 188 470
e 188 480
e 189 199
e 189 207
e 189 225
e 189 282
e 189 342
e 189 392
e 189 404
e 189 481
e 190 210
e 190 225
e 190 270
e 190 271
e 190 283
e 190 301
e 190 326
e 190 329
e 190 330
e 190 374
e 190 404
e 190 448
e 191 197
e 191 213
e 191 234
e 191 259
e 191 272
e 191 298
e 191 307
e 191 314
e 191 408
e 192 217
e 192 236
e 192 251
e 192 287
e 192 368
e 192 369
e 192 386
e 192 479
e 192 492
e 193 222
e 193 255
e 193 260
e 193 274
e 193 285
e 193 324
e 193 333
e 193 339
e 193 363
e 193 366
e 193 378
e 194 279
e 194 280
e 194 287
e 194 299
e 194 306
e 194 359
e 194 407
e 194 471
e 194 474
e 194 489
e 195 208
e 195 213
e 195 322
e 195 325
e 195 347
e 195 363
e 195 370
e 195 419
e 195 425
e 195 438
e 195 442
e 195 493
e 196 218
e 196 224
e 196 239
e 196 252
e 196 353
e 196 361
e 196 364
e 196 366
e 196 385
e 196 488
e 197 226
e 197 257
e 197 268
e 197 347
e 197 405
e 197 470
e 197 498
e 198 246
e 198 266
e 198 285
e 198 304
e 198 309
e 198 314
e 198 325
e 198 347
e 198 418
e 198 435
e 198 485
e 199 209
e 199 215
e 199 250
e 199 270
e 199 296
e 199 347
e 199 389
e 199 414
e 199 452
e 199 474
e 199 492
e 200 203
e 200 218
e 200 249
e 200 259
e 200 314
e 200 324
e 200 359
e 200 372
e 200 449
e 200 450
e 200 478
e 201 208
e 201 273
e 201 284
e 201 489
e 202 209
e 202 235
e 202 302
e 202 303
e 202 323
e 202 326
e 202 345
e 202 402
e 202 430
e 202 434
e 202 445
e 202 455
e 203 336
e 203 383
e 203 420
e 204 225
e 204 275
e 204 330
e 204 336
e 204 353
e 204 367
e 204 378
e 204 379
e 204 389
e 204 400
e 204 451
e 204 475
e 204 477
e 205 235
e 205 342
e 205 381
e 205 399
e 205 442
e 205 451
e 205 487
e 206 247
e 206 286
e 206 304
e 206 324
e 206 430
e 206 474
e 206 493
e 206 496
e 207 215
e 207 267
e 207 291
e 207 346
e 207 399
e 207 485
e 208 294
e 208 298
e 208 334
e 208 348
e 208 448
e 208 456
e 208 457
e 208 472
e 208 478
e 209 217
e 209 239
e 209 338
e 209 352
e 209 384
e 209 397
e 209 399
e 209 424
e 209 428
e 209 442
e 209 499
e 210 242
e 210 305
e 210 338
e 210 355
e 210 369
e 210 427
e 210 436
e 210 450
e 210 457
e 211 241
e 211 258
e 211 288
e 211 297
e 211 337
e 211 340
e 211 400
e 211 425
e 211 430
e 211 480
e 211 482
e 211 485
e 211 496
e 212 228
e 212 243
e 212 249
e 212 304
e 212 423
e 212 454
e 212 472
e 212 478
e 213 221
e 213 244
e 213 310
e 213 329
e 213 338
e 213 355
e 213 387
e 213 401
e 213 410
e 213 437
e 214 218
e 214 236
e 214 241
e 214 310
e 214 383
e 214 398
e 214 454
e 214 480
e 215 223
e 215 278
e 215 316
e 215 343
e 215 345
e 215 369
e 215 388
e 215 421
e 215 426
e 215 436
e 216 221
e 216 267
e 216 276
e 216 295
e 216 312
e 216 434
e 216 436
e 216 448
e 216 484
e 217 261
e 217 267
e 217 325
e 217 358
e 217 376
e 217 427
e 217 464
e 217 491
e 218 220
e 218 282
e 218 303
e 218 332
e 218 362
e 218 413
e 218 484
e 219 225
e 219 270
e 219 394
e 219 398
e 219 455
e 219 459
e 219 491
e 220 235
e 220 259
e 220 276
e 220 323
e 220 440
e 220 463
e 221 228
e 221 285
e 221 306
e 221 357
e 221 382
e 221 413
e 221 432
e 221 469
e 222 226
e 222 238
e 222 247
e 222 327
e 222 351
e 222 410
e 222 483
e 223 227
e 223 243
e 223 272
e 223 308
e 223 321
e 223 432
e 223 439
e 223 452
e 223 453
e 223 463
e 224 229
e 224 308
e 224 329
e 224 345
e 224 359
e 224 417
e 224 450
e 224 466
e 225 234
e 225 368
e 225 374
e 225 406
e 225 414
e 225 444
e 225 496
e 226 316
e 226 374
e 226 394
e 226 414
e 226 421
e 226 430
e 226 439
e 226 455
e 227 290
e 227 344
e 227 364
e 227 413
e 227 445
e 227 447
e 228 236
e 228 257
e 228 298
e 228 388
e 228 428
e 228 432
e 228 467
e 229 378
e 229 380
e 229 419
e 229 437
e 229 441
e 230 271
e 230 277
e 230 280
e 230 290
e 230 330
e 230 361
e 230 403
e 230 414
e 230 431
e 230 434
e 230 463
e 231 298
e 231 316
e 231 340
e 231 341
e 231 364
e 231 396
e 231 401
e 231 459
e 231 486
e 232 238
e 232 299
e 232 309
e 232 310
e 232 341
e 232 345
e 232 386
e 232 396
e 232 408
e 232 438
e 233 263
e 233 288
e 233 315
e 233 338
e 233 348
e 233 375
e 233 462
e 233 481
e 233 492
e 234 245
e 234 302
e 234 353
e 234 392
e 234 408
e 234 481
e 234 499
e 235 256
e 235 278
e 235 314
e 235 323
e 235 325
e 235 367
e 235 395
e 235 485
e 236 268
e 236 305
e 236 320
e 236 340
e 236 418
e 237 256
e 237 395
e 237 409
e 237 445
e 237 483
e 238 269
e 238 289
e 238 354
e 238 364
e 238 393
e 238 397
e 238 410
e 238 442
e 238 484
e 238 495
e 239 240
e 239 290
e 239 323
e 239 404
e 239 413
e 239 431
e 239 465
e 240 241
e 240 252
e 240 279
e 240 334
e 240 363
e 240 497
e 241 242
e 241 249
e 241 290
e 241 350
e 241 358
e 241 376
e 241 383
e 241 465
e 242 262
e 242 267
e 242 303
e 242 331
e 242 370
e 242 384
e 242 398
e 242 475
e 243 274
e 243 404
e 243 475
e 244 300
e 244 306
e 244 309
e 244 322
e 244 369
e 244 412
e 244 421
e 244 433
e 244 469
e 244 476
e 245 268
e 245 281
e 245 332
e 245 368
e 245 421
e 245 422
e 245 451
e 245 480
e 246 266
e 246 284
e 246 324
e 246 328
e 246 361
e 246 368
e 246 390
e 246 403
e 246 418
e 247 325
e 247 365
e 247 397
e 247 405
e 247 412
e 247 437
e 247 447
e 247 471
e 248 267
e 248 269
e 248 302
e 248 312
e 248 332
e 248 390
e 248 406
e 248 437
e 248 443
e 249 261
e 249 298
e 249 313
e 249 356
e 249 434
e 249 479
e 250 272
e 250 276
e 250 303
e 250 358
e 250 360
e 250 373
e 250 391
e 250 400
e 250 460
e 250 488
e 250 500
e 251 260
e 251 287
e 251 320
e 251 335
e 251 345
e 251 361
e 251 379
e 251 422
e 251 445
e 251 495
e 252 281
e 252 290
e 252 335
e 252 338
e 252 346
e 252 378
e 252 412
e 252 426
e 253 271
e 253 287
e 253 311
e 253 319
e 253 352
e 253 420
e 253 428
e 253 480
e 254 276
e 254 295
e 254 338
e 254 388
e 254 403
e 254 447
e 254 473
e 254 498
e 255 258
e 255 291
e 255 376
e 255 381
e 255 410
e 255 418
e 255 424
e 255 462
e 255 476
e 255 477
e 255 494
e 256 273
e 256 370
e 256 430
e 256 445
e 256 463
e 256 499
e 257 313
e 257 382
e 257 410
e 257 441
e 257 493
e 257 500
e 258 286
e 258 314
e 258 316
e 258 373
e 258 376
e 258 383
e 258 452
e 259 263
e 259 268
e 259 271
e 259 310
e 259 335
e 259 362
e 259 373
e 259 412
e 259 447
e 259 459
e 259 460
e 260 315
e 260 330
e 260 338
e 260 428
e 260 479
e 261 262
e 261 267
e 261 272
e 261 285
e 261 334
e 261 457
e 261 462
e 261 493
e 262 307
e 262 395
e 262 402
e 262 417
e 262 449
e 262 489
e 262 490
e 263 364
e 263 395
e 263 410
e 263 411
e 263 431
e 263 449
e 263 467
e 264 274
e 264 312
e 264 330
e 264 343
e 264 360
e 264 371
e 264 393
e 264 404
e 264 479
e 264 494
e 265 266
e 265 330
e 265 351
e 265 497
e 266 312
e 266 329
e 266 342
e 266 347
e 266 419
e 266 467
e 267 315
e 267 353
e 267 362
e 267 386
e 267 426
e 267 440
e 268 291
e 268 380
e 268 386
e 268 422
e 268 487
e 269 292
e 269 372
e 269 390
e 269 421
e 269 440
e 269 441
e 269 480
e 269 483
e 269 487
e 270 376
e 270 409
e 270 421
e 270 422
e 270 458
e 270 459
e 270 479
e 271 292
e 271 313
e 271 352
e 271 371
e 271 374
e 272 281
e 272 325
e 272 398
e 272 402
e 272 450
e 272 482
e 272 498
e 273 358
e 273 392
e 273 461
e 273 476
e 273 484
e 274 336
e 274 375
e 274 384
e 274 393
e 274 443
e 275 284
e 275 431
e 275 436
e 275 439
e 275 449
e 275 486
e 276 302
e 276 309
e 276 317
e 276 327
e 276 379
e 276 382
e 277 288
e 277 302
e 277 324
e 277 390
e 277 397
e 277 427
e 277 455
e 278 289
e 278 375
e 278 403
e 278 406
e 278 428
e 279 301
e 279 322
e 279 328
e 279 383
e 279 396
e 279 408
e 279 409
e 279 415
e 279 417
e 279 439
e 279 488
e 280 346
e 280 361
e 280 380
e 280 466
e 280 499
e 280 500
e 281 319
e 281 321
e 281 355
e 281 361
e 281 410
e 281 463
e 281 500
e 282 351
e 282 363
e 282 371
e 282 417
e 282 425
e 282 439
e 282 440
e 282 450
e 282 451
e 282 458
e 282 470
e 283 293
e 283 326
e 283 352
e 283 361
e 283 389
e 283 461
e 283 467
e 283 489
e 284 329
e 284 376
e 284 385
e 284 423
e 284 451
e 284 480
e 285 335
e 285 445
e 285 476
e 285 483
e 285 496
e 286 312
e 286 342
e 286 376
e 286 400
e 286 402
e 286 406
e 286 416
e 286 437
e 286 444
e 286 481
e 287 346
e 287 377
e 287 408
e 287 430
e 287 447
e 287 465
e 288 354
e 288 372
e 288 382
e 288 434
e 288 449
e 288 458
e 288 488
e 289 291
e 289 302
e 289 313
e 289 336
e 289 407
e 289 443
e 289 487
e 290 351
e 290 356
e 290 395
e 290 411
e 290 463
e 291 370
e 291 424
e 291 427
e 291 489
e 291 498
e 292 317
e 292 342
e 292 383
e 292 401
e 292 405
e 292 406
e 292 452
e 292 477
e 292 479
e 293 313
e 293 379
e 293 434
e 293 441
e 293 497
e 293 500
e 294 307
e 294 311
e 294 331
e 294 343
e 294 381
e 294 415
e 294 456
e 295 303
e 295 310
e 295 331
e 295 335
e 295 357
e 295 399
e 295 402
e 295 445
e 296 305
e 296 403
e 296 470
e 296 475
e 296 487
e 296 495
e 297 307
e 297 338
e 297 452
e 297 466
e 297 480
e 298 315
e 298 319
e 298 403
e 298 413
e 298 500
e 299 311
e 299 338
e 299 361
e 299 456
e 299 460
e 299 482
e 299 486
e 299 497
e 300 326
e 300 351
e 300 478
e 300 484
e 300 486
e 300 488
e 301 302
e 301 320
e 301 383
e 301 385
e 301 440
e 301 457
e 301 479
e 301 482
e 302 389
e 302 405
e 303 304
e 303 333
e 303 355
e 303 415
e 303 444
e 303 475
e 303 497
e 304 362
e 304 372
e 304 409
e 304 436
e 304 448
e 304 471
e 305 308
e 305 321
e 305 368
e 305 372
e 305 419
e 305 434
e 305 453
e 305 485
e 305 490
e 305 492
e 306 328
e 306 371
e 306 403
e 306 410
e 306 487
e 307 347
e 307 358
e 307 364
e 307 376
e 307 398
e 307 409
e 307 442
e 307 475
e 308 318
e 308 339
e 308 347
e 308 370
e 308 395
e 308 407
e 308 427
e 309 318
e 309 374
e 309 379
e 309 403
e 309 446
e 309 468
e 310 350
e 310 363
e 310 449
e 310 465
e 310 478
e 311 387
e 311 388
e 311 407
e 311 435
e 311 453
e 311 468
e 311 489
e 312 316
e 312 343
e 312 345
e 312 357
e 312 413
e 312 493
e 313 375
e 313 387
e 313 428
e 313 432
e 314 323
e 314 378
e 314 389
e 314 422
e 314 451
e 314 472
e 314 498
e 315 340
e 315 345
e 315 421
e 316 374
e 316 426
e 316 447
e 316 491
e 317 349
e 317 350
e 317 430
e 317 443
e 317 446
e 317 462
e 317 497
e 318 343
e 318 356
e 318 357
e 318 360
e 318 396
e 318 409
e 318 446
e 318 448
e 318 454
e 318 477
e 319 334
e 319 345
e 319 389
e 319 412
e 319 454
e 320 321
e 320 339
e 320 372
e 320 383
e 320 384
e 320 414
e 320 430
e 320 452
e 321 414
e 321 415
e 321 476
e 322 369
e 322 373
e 322 385
e 322 438
e 322 481
e 323 332
e 323 454
e 323 462
e 324 351
e 324 404
e 324 419
e 324 437
e 324 442
e 324 500
e 325 432
e 325 440
e 325 450
e 325 476
e 326 365
e 326 371
e 326 376
e 326 378
e 326 390
e 326 463
e 326 487
e 327 365
e 327 416
e 327 444
e 327 452
e 327 458
e 327 489
e 328 350
e 328 398
e 328 430
e 328 438
e 328 456
e 328 468
e 328 471
e 328 477
e 328 490
e 329 331
e 329 415
e 329 428
e 329 471
e 329 478
e 330 346
e 330 363
e 330 436
e 331 333
e 331 340
e 331 352
e 331 410
e 331 426
e 331 451
e 332 464
e 332 469
e 332 471
e 333 359
e 333 371
e 333 427
e 333 489
e 333 499
e 334 358
e 334 401
e 334 448
e 334 478
e 335 346
e 335 382
e 335 466
e 336 364
e 336 371
e 336 379
e 336 473
e 337 345
e 337 367
e 337 376
e 337 378
e 337 393
e 337 444
e 337 466
e 338 451
e 338 492
e 339 382
e 339 391
e 339 414
e 339 485
e 340 348
e 340 362
e 340 400
e 341 346
e 341 384
e 341 406
e 341 415
e 341 439
e 341 459
e 342 354
e 342 372
e 342 412
e 342 437
e 342 441
e 342 462
e 343 407
e 343 429
e 343 431
e 343 464
e 344 364
e 344 396
e 344 425
e 344 470
e 344 495
e 345 365
e 345 379
e 345 431
e 346 428
e 346 450
e 346 461
e 346 485
e 347 416
e 347 461
e 347 464
e 348 356
e 348 412
e 348 466
e 348 479
e 349 374
e 349 383
e 349 389
e 349 429
e 349 472
e 350 365
e 350 385
e 350 423
e 350 425
e 350 450
e 350 458
e 350 475
e 350 490
e 351 384
e 351 413
e 351 446
e 351 454
e 352 397
e 352 422
e 352 469
e 352 475
e 353 388
e 353 422
e 353 429
e 354 380
e 354 385
e 354 411
e 354 468
e 354 489
e 354 494
e 354 499
e 355 367
e 355 423
e 355 436
e 355 453
e 355 480
e 356 447
e 356 461
e 356 478
e 356 487
e 357 380
e 357 408
e 357 461
e 357 466
e 357 472
e 358 366
e 358 440
e 358 446
e 358 491
e 359 369
e 359 405
e 359 415
e 359 434
e 359 494
e 360 370
e 360 378
e 360 412
e 360 427
e 361 397
e 361 457
e 362 428
e 362 456
e 362 459
e 362 462
e 362 474
e 362 488
e 363 383
e 363 416
e 363 437
e 363 482
e 364 378
e 364 379
e 364 386
e 364 394
e 364 427
e 365 366
e 365 407
e 365 449
e 366 432
e 366 437
e 366 461
e 366 488
e 366 491
e 367 378
e 367 392
e 367 418
e 367 420
e 367 460
e 368 416
e 368 439
e 368 464
e 368 470
e 368 472
e 368 487
e 369 387
e 369 388
e 369 415
e 369 453
e 369 497
e 370 408
e 370 419
e 371 389
e 371 433
e 371 480
e 372 409
e 372 440
e 372 482
e 373 447
e 373 491
e 374 404
e 374 442
e 375 417
e 375 428
e 375 439
e 375 464
e 375 494
e 376 457
e 376 474
e 376 483
e 377 398
e 377 401
e 377 431
e 377 459
e 377 483
e 378 407
e 379 390
e 379 410
e 379 444
e 380 396
e 380 448
e 380 475
e 380 485
e 381 391
e 381 398
e 381 406
e 381 416
e 382 426
e 382 447
e 382 456
e 382 486
e 383 484
e 384 399
e 384 419
e 384 421
e 384 461
e 384 473
e 385 391
e 385 395
e 385 451
e 385 495
e 386 387
e 386 418
e 386 423
e 386 435
e 386 445
e 387 402
e 387 404
e 387 474
e 388 390
e 388 458
e 389 413
e 389 483
e 389 489
e 390 454
e 390 497
e 391 398
e 391 405
e 391 435
e 391 456
e 391 461
e 391 488
e 392 454
e 392 470
e 392 474
e 392 483
e 393 418
e 393 444
e 393 466
e 393 473
e 393 476
e 394 438
e 395 415
e 395 417
e 395 459
e 396 489
e 397 411
e 397 423
e 397 436
e 397 451
e 397 461
e 397 465
e 398 406
e 398 420
e 398 497
e 399 401
e 399 417
e 399 478
e 399 498
e 400 410
e 400 446
e 400 472
e 400 479
e 400 491
e 400 492
e 400 500
e 401 406
e 401 416
e 401 442
e 401 450
e 401 493
e 402 441
e 402 473
e 403 438
e 403 458
e 403 483
e 404 437
e 404 453
e 405 413
e 405 414
e 405 439
e 406 452
e 406 492
e 407 433
e 407 469
e 409 432
e 409 456
e 410 433
e 411 428
e 411 433
e 411 468
e 411 469
e 412 460
e 413 420
e 413 421
e 413 443
e 414 433
e 414 435
e 414 458
e 416 454
e 417 426
e 417 432
e 418 447
e 418 450
e 419 493
e 420 424
e 420 462
e 421 453
e 422 435
e 422 453
e 422 460
e 422 465
e 422 471
e 423 434
e 423 467
e 423 490
e 425 430
e 425 479
e 426 434
e 427 456
e 427 477
e 427 492
e 428 455
e 429 438
e 429 448
e 430 436
e 430 499
e 432 482
e 433 498
e 434 457
e 435 449
e 435 453
e 436 452
e 436 479
e 437 453
e 437 465
e 438 454
e 438 495
e 439 474
e 439 475
e 440 458
e 440 471
e 441 443
e 441 460
e 441 462
e 441 473
e 441 495
e 442 446
e 442 500
e 443 464
e 444 473
e 444 479
e 445 490
e 445 496
e 446 451
e 446 469
e 446 485
e 448 451
e 448 465
e 449 464
e 449 481
e 451 496
e 452 453
e 453 457
e 454 473
e 454 489
e 455 464
e 455 491
e 457 467
e 457 495
e 458 484
e 459 468
e 459 472
e 459 495
e 461 488
e 463 466
e 465 492
e 466 487
e 467 470
e 468 499
e 470 492
e 471 499
e 472 481
e 473 485
e 473 491
e 474 475
e 474 500
e 477 481
e 480 497
e 482 496
e 483 489
e 491 497
e 498 499
